c Reduced graph for R50_1g_1 generated by Cyril Grelier
p edge 45 100
v 1 5
v 2 5
v 3 5
v 4 5
v 5 5
v 6 5
v 7 5
v 8 5
v 9 4
v 10 4
v 11 4
v 12 4
v 13 4
v 14 4
v 15 4
v 16 3
v 17 3
v 18 3
v 19 3
v 20 3
v 21 3
v 22 3
v 23 3
v 24 3
v 25 3
v 26 3
v 27 2
v 28 2
v 29 2
v 30 2
v 31 2
v 32 2
v 33 2
v 34 2
v 35 2
v 36 2
v 37 1
v 38 1
v 39 1
v 40 1
v 41 1
v 42 1
v 43 1
v 44 1
v 45 1
e 1 12
e 1 16
e 1 20
e 1 21
e 1 28
e 2 9
e 2 29
e 2 30
e 2 31
e 2 37
e 3 16
e 3 17
e 3 21
e 3 29
e 4 9
e 4 19
e 4 21
e 4 27
e 5 10
e 5 35
e 5 39
e 5 40
e 6 16
e 6 21
e 6 37
e 6 44
e 7 16
e 7 18
e 7 27
e 7 45
e 8 11
e 8 43
e 9 26
e 9 31
e 9 39
e 9 43
e 10 30
e 10 32
e 10 39
e 10 42
e 11 16
e 11 32
e 11 34
e 11 44
e 12 19
e 12 20
e 12 37
e 13 16
e 13 27
e 13 28
e 13 38
e 14 20
e 14 29
e 14 38
e 15 31
e 15 41
e 16 27
e 16 41
e 17 22
e 17 24
e 17 28
e 17 36
e 17 41
e 17 42
e 18 28
e 18 34
e 18 37
e 18 39
e 18 42
e 19 22
e 19 25
e 19 30
e 19 39
e 20 32
e 20 37
e 21 25
e 22 30
e 22 40
e 23 33
e 23 43
e 23 44
e 24 31
e 24 40
e 25 26
e 27 33
e 27 38
e 27 42
e 28 29
e 29 38
e 30 38
e 32 44
e 33 35
e 33 38
e 34 45
e 35 39
e 36 39
e 36 41
e 37 38
e 37 43
e 40 45
